Solver command line: []

Read LP format model from file C:\Users\wlhlm\AppData\Local\Temp\tmp8jqfk0xp.pyomo.lp
Reading time = 6.27 seconds
objective: 967944 rows, 875999 columns, 2133006 nonzeros
Set parameter MIPGap to value 0.02
Gurobi Optimizer version 12.0.1 build v12.0.1rc0 (win64 - Windows 11.0 (26100.2))

CPU model: Intel(R) Core(TM) Ultra 7 258V, instruction set [SSE2|AVX|AVX2]
Thread count: 8 physical cores, 8 logical processors, using up to 8 threads

Non-default parameters:
MIPGap  0.02

Optimize a model with 967944 rows, 875999 columns and 2133006 nonzeros
Model fingerprint: 0x6b021635
Model has 8759 quadratic constraints
Variable types: 753360 continuous, 122639 integer (105120 binary)
Coefficient statistics:
  Matrix range     [6e-03, 2e+02]
  QMatrix range    [1e+00, 1e+00]
  Objective range  [1e-02, 5e+02]
  Bounds range     [1e+00, 3e+00]
  RHS range        [8e-05, 1e+04]
Presolve removed 774312 rows and 656082 columns
Presolve time: 1.20s
Presolved: 193632 rows, 219917 columns, 612600 nonzeros
Variable types: 145423 continuous, 74494 integer (65734 binary)
Performing another presolve...
Presolve removed 70079 rows and 70079 columns (presolve time = 78s)...
Presolve removed 70079 rows and 70079 columns
Presolve time: 77.62s
Deterministic concurrent LP optimizer: primal and dual simplex
Showing primal log only...


Root simplex log...

Iteration    Objective       Primal Inf.    Dual Inf.      Time
       0    1.1931358e+08   9.158192e+05   5.138723e+13     82s
   59160    1.1455326e+08   8.536794e+03   3.119593e+10     85s
Concurrent spin time: 0.00s

Solved with dual simplex

Root simplex log...

Iteration    Objective       Primal Inf.    Dual Inf.      Time
   75519    1.1181568e+08   0.000000e+00   0.000000e+00     88s

Root relaxation: objective 1.118157e+08, 75519 iterations, 6.66 seconds (4.25 work units)
Total elapsed time = 87.83s (DegenMoves)

    Nodes    |    Current Node    |     Objective Bounds      |     Work
 Expl Unexpl |  Obj  Depth IntInf | Incumbent    BestBd   Gap | It/Node Time

     0     0 1.1182e+08    0  201          - 1.1182e+08      -     -   93s
     0     0 1.1182e+08    0  218          - 1.1182e+08      -     -  103s
H    0     0                    1.118794e+08 1.1182e+08  0.06%     -  106s

Cutting planes:
  Gomory: 97
  Cover: 90
  Implied bound: 47
  MIR: 75
  Flow cover: 71
  RLT: 42
  Relax-and-lift: 50

Explored 1 nodes (80656 simplex iterations) in 107.78 seconds (20.63 work units)
Thread count was 8 (of 8 available processors)

Solution count 1: 1.11879e+08 

Optimal solution found (tolerance 2.00e-02)
Best objective 1.118793860873e+08, best bound 1.118165200345e+08, gap 0.0562%

